p cnf 11 92 
c Factors encoded in variables 1-5 and 6-10
c Target number: 551
c Factors: 29 x 19
9 8 -7 -12 -12 -12 0
-9 -12 12 12 0
3 2 8 7 -12 -12 0
-4 7 -12 -12 0
4 9 7 12 0
-3 2 -8 12 12 0
-2 -7 0
-4 -9 8 7 -12 -12 0
-3 9 -7 12 -12 0
9 -12 0
-3 -2 9 -8 -7 -12 -12 12 0
9 8 7 0
3 -9 -8 12 -12 0
9 -8 12 12 0
-3 -8 -12 12 -12 0
-4 3 2 9 12 0
-4 -9 12 12 12 0
-4 -2 -9 -8 12 0
4 9 12 -12 -12 0
3 8 -7 -12 -12 0
4 -9 -8 -12 0
4 -9 8 7 12 0
4 2 8 7 0
3 8 7 -12 -12 0
4 -12 0
-3 2 8 12 -12 0
4 -2 9 12 0
-4 3 -9 -12 -12 0
4 3 -7 0
-4 2 -9 0
4 -3 -2 -9 -7 12 12 0
-4 9 8 7 12 0
4 -9 -8 7 12 -12 0
4 9 -8 -7 -12 0
4 -3 2 9 12 12 0
1 0
-4 -3 -9 -7 12 0
-4 3 2 -9 -12 0
-3 -8 7 -12 -12 -12 -12 0
-3 -8 0
3 9 12 12 -12 0
4 -3 7 -12 -12 0
-2 -7 12 12 12 0
-4 -3 -2 9 12 0
4 -9 8 -7 -12 0
10 0
2 9 -12 12 0
4 9 8 7 -12 0
4 -3 -2 -9 12 0
2 7 0
3 9 12 -12 0
4 3 9 -12 -12 0
-4 -9 -8 12 0
-4 9 -8 7 -12 0
4 -3 -2 -9 8 7 12 -12 0
-4 -9 -12 0
-3 -9 8 -7 -12 -12 0
4 9 12 12 0
4 8 12 -12 -12 0
4 -9 -8 -7 12 0
-3 8 -7 12 -12 12 0
9 8 -12 0
-4 -3 -2 -9 -12 0
-4 -2 -9 -8 12 12 0
-4 -3 -2 -7 -12 0
3 -9 -8 7 12 -12 0
-4 3 8 -7 12 -12 0
3 8 12 12 12 0
-4 9 -8 -7 12 0
-3 8 -7 -12 12 0
12 -12 12 -12 12 0
3 -2 8 -7 -12 12 0
4 9 -12 0
-3 -9 7 12 -12 12 12 0
4 3 2 -9 12 0
-4 -9 -12 12 12 -12 0
-4 9 -8 -12 -12 12 0
-4 -2 -9 -8 12 12 12 0
5 0
9 8 12 -12 0
4 3 2 9 -12 0
-9 8 7 12 -12 0
3 8 12 12 12 -12 0
4 9 -12 -12 0
-3 -9 -7 12 12 0
4 -3 -2 9 -12 0
3 2 -9 -8 -7 12 0
-4 -3 9 8 -7 -12 0
-4 -3 7 0
3 8 0
4 3 12 -12 0
6 0
